# Solution for model r3_t9_m3_3
# Finished Task: 9 / 9
# Makespan: 504.0, Total Distance: 586.0, Total Time: 0.0427
# R O S F
0 0 6 0.0 0.0
1 1 5 0.0 0.0
2 2 11 0.0 0.0
3 1 7 216.0 240.0
4 0 -1 479.0 504.0
5 1 3 118.0 150.0
6 0 9 136.0 167.0
7 1 10 280.0 308.0
8 2 -1 422.0 447.0
9 0 4 393.0 422.0
10 1 -1 422.0 451.0
11 2 8 212.0 244.0
